Gurobi Optimizer version 9.1.2 build v9.1.2rc0 (linux64)
Thread count: 36 physical cores, 72 logical processors, using up to 32 threads
Optimize a model with 12 rows, 57 columns and 590 nonzeros
Model fingerprint: 0xf32eec78
Model has 47 quadratic constraints
Coefficient statistics:
  Matrix range     [2e-05, 3e+00]
  QMatrix range    [1e+00, 1e+00]
  QLMatrix range   [1e+00, 1e+00]
  Objective range  [8e-03, 7e-01]
  Bounds range     [1e+00, 1e+00]
  RHS range        [1e+00, 1e+00]
Presolve removed 9 rows and 0 columns

Continuous model is non-convex -- solving as a MIP.

Presolve removed 9 rows and 0 columns
Presolve time: 0.00s
Presolved: 189 rows, 57 columns, 443 nonzeros
Presolved model has 47 bilinear constraint(s)
Variable types: 57 continuous, 0 integer (0 binary)

Root relaxation: objective -1.743721e+00, 44 iterations, 0.00 seconds

    Nodes    |    Current Node    |     Objective Bounds      |     Work
 Expl Unexpl |  Obj  Depth IntInf | Incumbent    BestBd   Gap | It/Node Time

     0     0   -1.74372    0   38          -   -1.74372      -     -    0s
H    0     0                       0.6147548   -1.74372   384%     -    0s
     0     0   -1.64739    0    1    0.61475   -1.64739   368%     -    0s
H    0     0                      -1.6450460   -1.64739  0.14%     -    0s
     0     0     cutoff    0        -1.64505   -1.64505  0.00%     -    0s

Cutting planes:
  RLT: 25
  BQP: 3

Explored 1 nodes (76 simplex iterations) in 0.01 seconds
Thread count was 32 (of 72 available processors)

Solution count 2: -1.64505 0.614755 
No other solutions better than -1.64505

Optimal solution found (tolerance 1.00e-04)
Best objective -1.645045978473e+00, best bound -1.645045978473e+00, gap 0.0000%

User-callback calls 78, time in user-callback 0.00 sec
Gurobi Optimizer version 9.1.2 build v9.1.2rc0 (linux64)
Thread count: 36 physical cores, 72 logical processors, using up to 32 threads
Optimize a model with 24 rows, 120 columns and 2480 nonzeros
Model fingerprint: 0x2ba2ab8a
Model has 100 quadratic constraints
Coefficient statistics:
  Matrix range     [8e-06, 4e+00]
  QMatrix range    [1e+00, 1e+00]
  QLMatrix range   [1e+00, 1e+00]
  Objective range  [5e-03, 1e+00]
  Bounds range     [1e+00, 1e+00]
  RHS range        [1e+00, 1e+00]
Presolve removed 18 rows and 0 columns

Continuous model is non-convex -- solving as a MIP.

Presolve removed 18 rows and 0 columns
Presolve time: 0.00s
Presolved: 406 rows, 120 columns, 1113 nonzeros
Presolved model has 100 bilinear constraint(s)
Variable types: 120 continuous, 0 integer (0 binary)

Root relaxation: objective -7.402971e+00, 144 iterations, 0.00 seconds

    Nodes    |    Current Node    |     Objective Bounds      |     Work
 Expl Unexpl |  Obj  Depth IntInf | Incumbent    BestBd   Gap | It/Node Time

     0     0   -7.40297    0  100          -   -7.40297      -     -    0s
H    0     0                       1.4554058   -7.40297   609%     -    0s
     0     0   -5.04959    0  100    1.45541   -5.04959   447%     -    0s
H    0     0                       0.5875852   -5.04959   959%     -    0s
     0     0   -4.49128    0   90    0.58759   -4.49128   864%     -    0s
H    0     0                      -0.2236613   -4.49128  1908%     -    0s
     0     0   -4.43078    0  100   -0.22366   -4.43078  1881%     -    0s
     0     0   -4.28946    0   90   -0.22366   -4.28946  1818%     -    0s
     0     0   -4.28116    0   90   -0.22366   -4.28116  1814%     -    0s
     0     0   -4.21952    0  100   -0.22366   -4.21952  1787%     -    0s
     0     0   -4.21361    0  100   -0.22366   -4.21361  1784%     -    0s
     0     0   -4.20896    0  100   -0.22366   -4.20896  1782%     -    0s
     0     0   -4.20708    0  100   -0.22366   -4.20708  1781%     -    0s
     0     0   -4.20513    0  100   -0.22366   -4.20513  1780%     -    0s
H    0     0                      -0.3253426   -4.20513  1193%     -    0s
H    0     0                      -1.5064093   -4.20513   179%     -    0s
H    0     0                      -1.5896802   -4.20513   165%     -    0s
     0     2   -4.20513    0  100   -1.58968   -4.20513   165%     -    0s
* 1147  1224              38      -2.5216538   -3.66955  45.5%  23.7    0s
* 1280  1316              25      -3.0228983   -3.66955  21.4%  22.4    0s
* 1316  1316              24      -3.3730220   -3.66955  8.79%  22.2    0s
* 1897   620              22      -3.3743416   -3.63137  7.62%  18.3    0s
* 1907   620              22      -3.3792181   -3.63137  7.46%  18.3    0s
* 1909   620              23      -3.3842003   -3.63137  7.30%  18.3    0s
* 2257   315              23      -3.3868131   -3.45617  2.05%  15.6    0s
* 2266   315              24      -3.3874866   -3.45617  2.03%  15.5    0s
* 2272   315              25      -3.3875768   -3.45617  2.02%  15.5    0s
* 2364   315              22      -3.3878051   -3.45617  2.02%  15.1    0s
* 2366   315              23      -3.3878057   -3.45617  2.02%  15.1    0s
* 2711     3              21      -3.3879069   -3.38796  0.00%  13.3    0s
* 2713     3              22      -3.3879300   -3.38796  0.00%  13.3    0s
* 2726     3              20      -3.3879545   -3.38795  0.00%  13.2    0s

Cutting planes:
  RLT: 75
  BQP: 18
  PSD: 9

Explored 3000 nodes (36520 simplex iterations) in 0.69 seconds
Thread count was 32 (of 72 available processors)

Solution count 10: -3.38795 -3.38793 -3.38791 ... -3.37922
No other solutions better than -3.38795

Optimal solution found (tolerance 1.00e-04)
Best objective -3.387954493617e+00, best bound -3.387954493617e+00, gap 0.0000%

User-callback calls 6273, time in user-callback 0.00 sec



objective value: -3.3879544936168666
objective bound: -3.3879544936168666
x_opt: [0.0, 1.0, 1.0, 0.45126240317751465, 1.0, 0.0, 0.07440911739482678, 0.0, 0.1789385025569173, 1.0, 0.0, 0.0026198179707326006, 1.0, 1.0, 1.0, 0.0, 0.0, 0.0, 0.0, 0.0]
GUROBI solution time: 0.6878318786621094




